(declare-const |y':33| Int)
(declare-const havoc Int)
(declare-const |x':32| Int)
(declare-const |K:38| Int)
(assert (and (<= (- havoc) 0)
               (or (not (<= (- |K:38|) 0)) (= (+ |x':32| |K:38| (- havoc)) 0))
               (or (not (<= (- |K:38|) 0)) (= (+ |y':33| (- |K:38|)) 0))
               (or (and (= |K:38| 0) (= (- |y':33|) 0)
                          (= (+ (- |x':32|) havoc) 0))
                     (and (<= (+ (- |K:38|) 1) 0) (<= (+ (- havoc) 1) 0)
                            (<= (- |x':32|) 0) (<= (+ (- |y':33|) 1) 0)))
               (<= (- |K:38|) 0) (<= (- |y':33|) 0) (<= (- |x':32|) 0)
               (<= |x':32| 0) (not (= (+ |y':33| (- havoc)) 0))))
(check-sat)
